sat
(:added-eqs                       24798
 :arith-eq-adapter                1280
 :arith-bound-propagations-lp     1277
 :arith-branch                    66
 :arith-conflicts                 3361
 :arith-cube-calls                25
 :arith-diseq                     5995
 :arith-fixed-eqs                 4364
 :arith-gcd-calls                 366
 :arith-gomory-cuts               40
 :arith-grobner-calls             399
 :arith-grobner-conflicts         119
 :arith-hnf-calls                 4
 :arith-horner-calls              105
 :arith-horner-cross-nested-forms 19163
 :arith-lower                     10715
 :arith-make-feasible             9488
 :arith-max-columns               1317
 :arith-max-rows                  701
 :arith-nla-add-bounds            163
 :arith-nla-lemmas                1759
 :arith-nla-propagate-bounds      1244
 :arith-nla-propagate-eq          18023
 :arith-nra-calls                 47
 :arith-offset-eqs                2280
 :arith-patches                   366
 :arith-patches-success           268
 :arith-upper                     9781
 :binary-propagations             45975
 :cnf-encoding-aux-vars           11
 :conflicts                       586
 :decisions                       114696
 :del-clause                      3887
 :elim-unconstrained              136
 :final-checks                    1145
 :max-memory                      33.90
 :memory                          19.39
 :minimized-lits                  534
 :mk-bool-var                     9384
 :mk-clause                       5690
 :mk-clause-binary                10796
 :nlsat-conflicts                 4759
 :nlsat-decisions                 141
 :nlsat-propagations              194807
 :nlsat-restarts                  3
 :nlsat-stages                    104649
 :num-allocs                      1727511230
 :num-checks                      1
 :propagations                    73140
 :restarts                        5
 :rlimit-count                    3623063
 :solve-eqs-elim-vars             79
 :solve-eqs-steps                 1208
 :time                            2.06
 :total-time                      2.07)
